c .nnodes 80
c .nvars 297
c .nsuppvars 167
c .ids  0 1 2 3 4 5 6 7 8 9 10 11 12 13 14 15 16 17 18 19 20 21 22 23 24 25 26 27 28 29 30 31 32 33 34 35 36 37 38 39 40 41 42 43 44 45 46 47 48 49 50 51 52 53 54 55 56 57 58 59 60 61 62 63 64 65 66 67 68 69 70 71 72 73 74 75 76 77 78 79 80 81 82 83 84 85 86 87 88 89 90 91 92 93 94 95 96 97 98 99 100 101 102 103 104 105 106 107 108 109 110 111 112 113 114 115 116 117 118 119 120 121 122 123 124 125 126 127 128 129 130 131 132 133 134 135 136 137 138 139 140 141 142 143 144 145 146 147 148 149 150 151 152 153 154 155 156 157 158 159 160 161 162 163 164 165 166 
c .cnfids  543 482 494 534 539 549 589 470 471 496 509 521 527 560 577 464 469 475 492 501 520 563 519 525 531 532 542 547 551 554 558 561 567 578 579 580 465 467 474 480 483 490 498 528 529 538 569 461 476 493 507 510 513 524 555 566 571 574 487 489 491 586 500 466 453 512 502 437 442 455 433 439 450 434 436 444 452 454 459 441 446 449 456 458 431 457 445 430 435 440 443 451 429 448 460 438 447 432 481 488 511 522 556 462 473 495 557 562 582 523 537 544 550 565 484 508 518 533 546 581 497 468 499 568 463 478 530 576 587 503 428 559 517 526 536 540 541 545 548 553 585 472 485 486 504 552 564 588 590 506 570 572 573 575 515 516 583 505 479 584 477 514 535 427 426 425 424 
c .nroots 1
c .rootids 2
p cnf 721 1891
3 -4 -138 -387 -404 0
-3 404 0
-3 4 0
-3 387 0
-3 138 0
4 543 -5 -36 -69 0
4 -543 5 -36 -69 0
-4 69 0
-4 543 5 0
-4 36 0
-4 -543 -5 0
5 428 -6 0
5 -428 -21 0
-5 -428 21 0
-5 428 6 0
6 427 -7 0
6 -427 -14 0
-6 -427 14 0
-6 427 7 0
7 426 -8 0
7 -426 -11 0
-7 -426 11 0
-7 426 8 0
8 -425 -9 0
8 425 -10 0
-8 425 10 0
-8 -425 9 0
9 424 585 0
9 -424 541 0
-9 -424 -541 0
-9 424 -585 0
10 -424 552 0
10 424 516 0
-10 424 -516 0
-10 -424 -552 0
11 -425 -12 0
11 425 -13 0
-11 425 13 0
-11 -425 12 0
12 -424 515 0
12 424 485 0
-12 424 -485 0
-12 -424 -515 0
13 -424 584 0
13 424 506 0
-13 424 -506 0
-13 -424 -584 0
14 426 -15 0
14 -426 -18 0
-14 -426 18 0
-14 426 15 0
15 -425 -16 0
15 425 -17 0
-15 425 17 0
-15 -425 16 0
16 -424 514 0
16 424 479 0
-16 424 -479 0
-16 -424 -514 0
17 424 575 0
17 -424 536 0
-17 -424 -536 0
-17 424 -575 0
18 -425 -19 0
18 425 -20 0
-18 425 20 0
-18 -425 19 0
19 -424 540 0
19 424 505 0
-19 424 -505 0
-19 -424 -540 0
20 -424 583 0
20 424 486 0
-20 424 -486 0
-20 -424 -583 0
21 427 -22 0
21 -427 -29 0
-21 -427 29 0
-21 427 22 0
22 426 -23 0
22 -426 -26 0
-22 -426 26 0
-22 426 23 0
23 -425 -24 0
23 425 -25 0
-23 425 25 0
-23 -425 24 0
24 -424 570 0
24 424 517 0
-24 424 -517 0
-24 -424 -570 0
25 424 590 0
25 -424 553 0
-25 -424 -553 0
-25 424 -590 0
26 -425 -27 0
26 425 -28 0
-26 425 28 0
-26 -425 27 0
27 424 564 0
27 -424 526 0
-27 -424 -526 0
-27 424 -564 0
28 424 504 0
28 -424 472 0
-28 -424 -472 0
-28 424 -504 0
29 426 -30 0
29 -426 -33 0
-29 -426 33 0
-29 426 30 0
30 -425 -31 0
30 425 -32 0
-30 425 32 0
-30 -425 31 0
31 -424 548 0
31 424 535 0
-31 424 -535 0
-31 -424 -548 0
32 -424 573 0
32 424 559 0
-32 424 -559 0
-32 -424 -573 0
33 -425 -34 0
33 425 -35 0
-33 425 35 0
-33 -425 34 0
34 -424 572 0
34 424 477 0
-34 424 -477 0
-34 -424 -572 0
35 424 588 0
35 -424 545 0
-35 -424 -545 0
-35 424 -588 0
36 482 -494 37 -38 0
36 482 494 -37 -38 0
36 -482 494 -37 38 0
36 -482 -494 37 38 0
-36 -482 -38 0
-36 482 38 0
-36 -494 -37 0
-36 494 37 0
37 -428 -6 0
37 428 -21 0
-37 428 21 0
-37 -428 6 0
38 428 -39 0
38 -428 -54 0
-38 -428 54 0
-38 428 39 0
39 427 -40 0
39 -427 -47 0
-39 -427 47 0
-39 427 40 0
40 426 -41 0
40 -426 -44 0
-40 -426 44 0
-40 426 41 0
41 -425 -42 0
41 425 -43 0
-41 425 43 0
-41 -425 42 0
42 424 514 0
42 -424 486 0
-42 -424 -486 0
-42 424 -514 0
43 424 536 0
43 -424 479 0
-43 -424 -479 0
-43 424 -536 0
44 -425 -45 0
44 425 -46 0
-44 425 46 0
-44 -425 45 0
45 -424 590 0
45 424 540 0
-45 424 -540 0
-45 -424 -590 0
46 424 583 0
46 -424 505 0
-46 -424 -505 0
-46 424 -583 0
47 426 -48 0
47 -426 -51 0
-47 -426 51 0
-47 426 48 0
48 -425 -49 0
48 425 -50 0
-48 425 50 0
-48 -425 49 0
49 424 570 0
49 -424 504 0
-49 -424 -504 0
-49 424 -570 0
50 424 553 0
50 -424 517 0
-50 -424 -517 0
-50 424 -553 0
51 -425 -52 0
51 425 -53 0
-51 425 53 0
-51 -425 52 0
52 -424 559 0
52 424 526 0
-52 424 -526 0
-52 -424 -559 0
53 -424 564 0
53 424 472 0
-53 424 -472 0
-53 -424 -564 0
54 427 -55 0
54 -427 -62 0
-54 -427 62 0
-54 427 55 0
55 426 -56 0
55 -426 -59 0
-55 -426 59 0
-55 426 56 0
56 -425 -57 0
56 425 -58 0
-56 425 58 0
-56 -425 57 0
57 -424 588 0
57 424 548 0
-57 424 -548 0
-57 -424 -588 0
58 424 573 0
58 -424 535 0
-58 -424 -535 0
-58 424 -573 0
59 -425 -60 0
59 425 -61 0
-59 425 61 0
-59 -425 60 0
60 424 572 0
60 -424 516 0
-60 -424 -516 0
-60 424 -572 0
61 424 545 0
61 -424 477 0
-61 -424 -477 0
-61 424 -545 0
62 426 -63 0
62 -426 -66 0
-62 -426 66 0
-62 426 63 0
63 -425 -64 0
63 425 -65 0
-63 425 65 0
-63 -425 64 0
64 424 541 0
64 -424 506 0
-64 -424 -506 0
-64 424 -541 0
65 -424 585 0
65 424 552 0
-65 424 -552 0
-65 -424 -585 0
66 -425 -67 0
66 425 -68 0
-66 425 68 0
-66 -425 67 0
67 -424 575 0
67 424 515 0
-67 424 -515 0
-67 -424 -575 0
68 424 584 0
68 -424 485 0
-68 -424 -485 0
-68 424 -584 0
69 -70 -101 -108 -123 0
-69 123 0
-69 70 0
-69 108 0
-69 101 0
70 496 -539 71 -86 0
70 496 539 -71 -86 0
70 -496 539 -71 86 0
70 -496 -539 71 86 0
-70 -496 -86 0
-70 496 86 0
-70 -539 -71 0
-70 539 71 0
71 428 -72 0
71 -428 -79 0
-71 -428 79 0
-71 428 72 0
72 427 -73 0
72 -427 -76 0
-72 -427 76 0
-72 427 73 0
73 426 -74 0
73 -426 -75 0
-73 -426 75 0
-73 426 74 0
74 425 -52 0
74 -425 -58 0
-74 -425 58 0
-74 425 52 0
75 425 -57 0
75 -425 -61 0
-75 -425 61 0
-75 425 57 0
76 426 -77 0
76 -426 -78 0
-76 -426 78 0
-76 426 77 0
77 425 -60 0
77 -425 -65 0
-77 -425 65 0
-77 425 60 0
78 425 -64 0
78 -425 -68 0
-78 -425 68 0
-78 425 64 0
79 427 -80 0
79 -427 -83 0
-79 -427 83 0
-79 427 80 0
80 426 -81 0
80 -426 -82 0
-80 -426 82 0
-80 426 81 0
81 -425 -43 0
81 425 -67 0
-81 425 67 0
-81 -425 43 0
82 425 -42 0
82 -425 -46 0
-82 -425 46 0
-82 425 42 0
83 426 -84 0
83 -426 -85 0
-83 -426 85 0
-83 426 84 0
84 425 -45 0
84 -425 -50 0
-84 -425 50 0
-84 425 45 0
85 425 -49 0
85 -425 -53 0
-85 -425 53 0
-85 425 49 0
86 428 -87 0
86 -428 -94 0
-86 -428 94 0
-86 428 87 0
87 427 -88 0
87 -427 -91 0
-87 -427 91 0
-87 427 88 0
88 426 -89 0
88 -426 -90 0
-88 -426 90 0
-88 426 89 0
89 425 -31 0
89 -425 -35 0
-89 -425 35 0
-89 425 31 0
90 -425 -10 0
90 425 -34 0
-90 425 34 0
-90 -425 10 0
91 426 -92 0
91 -426 -93 0
-91 -426 93 0
-91 426 92 0
92 425 -9 0
92 -425 -13 0
-92 -425 13 0
-92 425 9 0
93 425 -12 0
93 -425 -17 0
-93 -425 17 0
-93 425 12 0
94 427 -95 0
94 -427 -98 0
-94 -427 98 0
-94 427 95 0
95 426 -96 0
95 -426 -97 0
-95 -426 97 0
-95 426 96 0
96 425 -16 0
96 -425 -20 0
-96 -425 20 0
-96 425 16 0
97 425 -19 0
97 -425 -25 0
-97 -425 25 0
-97 425 19 0
98 426 -99 0
98 -426 -100 0
-98 -426 100 0
-98 426 99 0
99 425 -24 0
99 -425 -28 0
-99 -425 28 0
-99 425 24 0
100 425 -27 0
100 -425 -32 0
-100 -425 32 0
-100 425 27 0
101 -549 589 102 -105 0
101 549 589 -102 -105 0
101 549 -589 -102 105 0
101 -549 -589 102 105 0
-101 -549 -102 0
-101 549 102 0
-101 589 105 0
-101 -589 -105 0
102 428 -103 0
102 -428 -104 0
-102 -428 104 0
-102 428 103 0
103 -427 -88 0
103 427 -98 0
-103 427 98 0
-103 -427 88 0
104 427 -91 0
104 -427 -95 0
-104 -427 95 0
-104 427 91 0
105 428 -106 0
105 -428 -107 0
-105 -428 107 0
-105 428 106 0
106 -427 -73 0
106 427 -83 0
-106 427 83 0
-106 -427 73 0
107 427 -76 0
107 -427 -80 0
-107 -427 80 0
-107 427 76 0
108 -470 509 109 -116 0
108 470 509 -109 -116 0
108 470 -509 -109 116 0
108 -470 -509 109 116 0
-108 -470 -109 0
-108 470 109 0
-108 509 116 0
-108 -509 -116 0
109 428 -110 0
109 -428 -113 0
-109 -428 113 0
-109 428 110 0
110 427 -111 0
110 -427 -112 0
-110 -427 112 0
-110 427 111 0
111 -426 -8 0
111 426 -33 0
-111 426 33 0
-111 -426 8 0
112 426 -11 0
112 -426 -15 0
-112 -426 15 0
-112 426 11 0
113 427 -114 0
113 -427 -115 0
-113 -427 115 0
-113 427 114 0
114 426 -18 0
114 -426 -23 0
-114 -426 23 0
-114 426 18 0
115 426 -26 0
115 -426 -30 0
-115 -426 30 0
-115 426 26 0
116 428 -117 0
116 -428 -120 0
-116 -428 120 0
-116 428 117 0
117 427 -118 0
117 -427 -119 0
-117 -427 119 0
-117 427 118 0
118 426 -90 0
118 -426 -92 0
-118 -426 92 0
-118 426 90 0
119 426 -93 0
119 -426 -96 0
-119 -426 96 0
-119 426 93 0
120 427 -121 0
120 -427 -122 0
-120 -427 122 0
-120 427 121 0
121 426 -97 0
121 -426 -99 0
-121 -426 99 0
-121 426 97 0
122 -426 -89 0
122 426 -100 0
-122 426 100 0
-122 -426 89 0
123 521 -534 124 -131 0
123 521 534 -124 -131 0
123 -521 534 -124 131 0
123 -521 -534 124 131 0
-123 -521 -131 0
-123 521 131 0
-123 -534 -124 0
-123 534 124 0
124 428 -125 0
124 -428 -128 0
-124 -428 128 0
-124 428 125 0
125 427 -126 0
125 -427 -127 0
-125 -427 127 0
-125 427 126 0
126 426 -78 0
126 -426 -81 0
-126 -426 81 0
-126 426 78 0
127 426 -82 0
127 -426 -84 0
-127 -426 84 0
-127 426 82 0
128 427 -129 0
128 -427 -130 0
-128 -427 130 0
-128 427 129 0
129 -426 -74 0
129 426 -85 0
-129 426 85 0
-129 -426 74 0
130 426 -75 0
130 -426 -77 0
-130 -426 77 0
-130 426 75 0
131 428 -132 0
131 -428 -135 0
-131 -428 135 0
-131 428 132 0
132 427 -133 0
132 -427 -134 0
-132 -427 134 0
-132 427 133 0
133 426 -44 0
133 -426 -48 0
-133 -426 48 0
-133 426 44 0
134 426 -51 0
134 -426 -56 0
-134 -426 56 0
-134 426 51 0
135 427 -136 0
135 -427 -137 0
-135 -427 137 0
-135 427 136 0
136 426 -59 0
136 -426 -63 0
-136 -426 63 0
-136 426 59 0
137 -426 -41 0
137 426 -66 0
-137 426 66 0
-137 -426 41 0
138 -139 -366 -379 -382 0
-138 382 0
-138 139 0
-138 379 0
-138 366 0
139 -140 -218 -245 -280 0
-139 280 0
-139 140 0
-139 245 0
-139 218 0
140 -141 -172 -197 -210 0
-140 210 0
-140 141 0
-140 197 0
-140 172 0
141 -561 567 -142 157 0
141 561 -567 142 -157 0
141 561 567 142 157 0
141 -561 -567 -142 -157 0
-141 -561 142 0
-141 561 -142 0
-141 567 -157 0
-141 -567 157 0
142 -427 -143 0
142 427 -150 0
-142 427 150 0
-142 -427 143 0
143 -426 -144 0
143 426 -147 0
-143 426 147 0
-143 -426 144 0
144 -425 -145 0
144 425 -146 0
-144 425 146 0
-144 -425 145 0
145 -424 -468 0
145 424 -568 0
-145 424 568 0
-145 -424 468 0
146 -424 -581 0
146 424 -582 0
-146 424 582 0
-146 -424 581 0
147 -425 -148 0
147 425 -149 0
-147 425 149 0
-147 -425 148 0
148 424 -462 0
148 -424 -499 0
-148 -424 499 0
-148 424 462 0
149 -424 -481 0
149 424 -488 0
-149 424 488 0
-149 -424 481 0
150 -426 -151 0
150 426 -154 0
-150 426 154 0
-150 -426 151 0
151 -425 -152 0
151 425 -153 0
-151 425 153 0
-151 -425 152 0
152 424 -511 0
152 -424 -533 0
-152 -424 533 0
-152 424 511 0
153 -424 -503 0
153 424 -523 0
-153 424 523 0
-153 -424 503 0
154 -425 -155 0
154 425 -156 0
-154 425 156 0
-154 -425 155 0
155 424 -522 0
155 -424 -562 0
-155 -424 562 0
-155 424 522 0
156 -424 -537 0
156 424 -544 0
-156 424 544 0
-156 -424 537 0
157 -427 -158 0
157 427 -165 0
-157 427 165 0
-157 -427 158 0
158 -426 -159 0
158 426 -162 0
-158 426 162 0
-158 -426 159 0
159 -425 -160 0
159 425 -161 0
-159 425 161 0
-159 -425 160 0
160 424 -503 0
160 -424 -511 0
-160 -424 511 0
-160 424 503 0
161 -424 -523 0
161 424 -562 0
-161 424 562 0
-161 -424 523 0
162 -425 -163 0
162 425 -164 0
-162 425 164 0
-162 -425 163 0
163 -424 -522 0
163 424 -537 0
-163 424 537 0
-163 -424 522 0
164 424 -530 0
164 -424 -544 0
-164 -424 544 0
-164 424 530 0
165 -426 -166 0
165 426 -169 0
-165 426 169 0
-165 -426 166 0
166 -425 -167 0
166 425 -168 0
-166 425 168 0
-166 -425 167 0
167 424 -518 0
167 -424 -556 0
-167 -424 556 0
-167 424 518 0
168 -424 -546 0
168 424 -576 0
-168 424 576 0
-168 -424 546 0
169 -425 -170 0
169 425 -171 0
-169 425 171 0
-169 -425 170 0
170 -424 -473 0
170 424 -495 0
-170 424 495 0
-170 -424 473 0
171 -424 -463 0
171 424 -550 0
-171 424 550 0
-171 -424 463 0
172 -467 483 -173 185 0
172 467 -483 173 -185 0
172 467 483 173 185 0
172 -467 -483 -173 -185 0
-172 -467 173 0
-172 467 -173 0
-172 483 -185 0
-172 -483 185 0
173 -427 -174 0
173 427 -181 0
-173 427 181 0
-173 -427 174 0
174 -426 -175 0
174 426 -178 0
-174 426 178 0
-174 -426 175 0
175 -425 -176 0
175 425 -177 0
-175 425 177 0
-175 -425 176 0
176 424 -473 0
176 -424 -576 0
-176 -424 576 0
-176 424 473 0
177 424 -463 0
177 -424 -495 0
-177 -424 495 0
-177 424 463 0
178 -425 -179 0
178 425 -180 0
-178 425 180 0
-178 -425 179 0
179 -424 -550 0
179 424 -565 0
-179 424 565 0
-179 -424 550 0
180 424 -478 0
180 -424 -497 0
-180 -424 497 0
-180 424 478 0
181 426 -144 0
181 -426 -182 0
-181 -426 182 0
-181 426 144 0
182 -425 -183 0
182 425 -184 0
-182 425 184 0
-182 -425 183 0
183 424 -557 0
183 -424 -587 0
-183 -424 587 0
-183 424 557 0
184 424 -484 0
184 -424 -508 0
-184 -424 508 0
-184 424 484 0
185 -427 -186 0
185 427 -193 0
-185 427 193 0
-185 -427 186 0
186 -426 -187 0
186 426 -190 0
-186 426 190 0
-186 -426 187 0
187 -425 -188 0
187 425 -189 0
-187 425 189 0
-187 -425 188 0
188 424 -468 0
188 -424 -484 0
-188 -424 484 0
-188 424 468 0
189 -424 -568 0
189 424 -581 0
-189 424 581 0
-189 -424 568 0
190 -425 -191 0
190 425 -192 0
-190 425 192 0
-190 -425 191 0
191 424 -499 0
191 -424 -582 0
-191 -424 582 0
-191 424 499 0
192 -424 -462 0
192 424 -481 0
-192 424 481 0
-192 -424 462 0
193 -426 -194 0
193 426 -196 0
-193 426 196 0
-193 -426 194 0
194 425 -160 0
194 -425 -195 0
-194 -425 195 0
-194 425 160 0
195 -424 -488 0
195 424 -533 0
-195 424 533 0
-195 -424 488 0
196 -425 -161 0
196 425 -163 0
-196 425 163 0
-196 -425 161 0
197 -525 558 -198 207 0
197 525 -558 198 -207 0
197 525 558 198 207 0
197 -525 -558 -198 -207 0
-197 -525 198 0
-197 525 -198 0
-197 558 -207 0
-197 -558 207 0
198 -427 -199 0
198 427 -203 0
-198 427 203 0
-198 -427 199 0
199 -426 -200 0
199 426 -201 0
-199 426 201 0
-199 -426 200 0
200 -425 -168 0
200 425 -170 0
-200 425 170 0
-200 -425 168 0
201 -425 -171 0
201 425 -202 0
-201 425 202 0
-201 -425 171 0
202 424 -497 0
202 -424 -565 0
-202 -424 565 0
-202 424 497 0
203 426 -187 0
203 -426 -204 0
-203 -426 204 0
-203 426 187 0
204 -425 -205 0
204 425 -206 0
-204 425 206 0
-204 -425 205 0
205 -424 -478 0
205 424 -587 0
-205 424 587 0
-205 -424 478 0
206 424 -508 0
206 -424 -557 0
-206 -424 557 0
-206 424 508 0
207 -427 -193 0
207 427 -208 0
-207 427 208 0
-207 -427 193 0
208 426 -200 0
208 -426 -209 0
-208 -426 209 0
-208 426 200 0
209 -425 -164 0
209 425 -167 0
-209 425 167 0
-209 -425 164 0
210 -498 554 211 -213 0
210 -498 -554 -211 -213 0
210 498 554 211 213 0
210 498 -554 -211 213 0
-210 498 -213 0
-210 -498 213 0
-210 -554 211 0
-210 554 -211 0
211 -427 -208 0
211 427 -212 0
-211 427 212 0
-211 -427 208 0
212 -426 -201 0
212 426 -204 0
-212 426 204 0
-212 -426 201 0
213 -427 -150 0
213 427 -214 0
-213 427 214 0
-213 -427 150 0
214 426 -175 0
214 -426 -215 0
-214 -426 215 0
-214 426 175 0
215 -425 -216 0
215 425 -217 0
-215 425 217 0
-215 -425 216 0
216 -424 -530 0
216 424 -556 0
-216 424 556 0
-216 -424 530 0
217 -424 -518 0
217 424 -546 0
-217 424 546 0
-217 -424 518 0
218 519 219 -222 -225 0
218 -519 -219 -222 -225 0
-218 225 0
-218 -519 219 0
-218 222 0
-218 519 -219 0
219 -427 -220 0
219 427 -221 0
-219 427 221 0
-219 -427 220 0
220 -426 -190 0
220 426 -194 0
-220 426 194 0
-220 -426 190 0
221 -426 -196 0
221 426 -209 0
-221 426 209 0
-221 -426 196 0
222 -465 547 223 -224 0
222 -465 -547 -223 -224 0
222 465 547 223 224 0
222 465 -547 -223 224 0
-222 465 -224 0
-222 -465 224 0
-222 -547 223 0
-222 547 -223 0
223 427 -186 0
223 -427 -212 0
-223 -427 212 0
-223 427 186 0
224 -427 -203 0
224 427 -220 0
-224 427 220 0
-224 -427 203 0
225 -490 -226 238 -243 0
225 490 -226 238 243 0
-225 -238 0
-225 490 -243 0
-225 226 0
-225 -490 243 0
226 -531 542 -227 234 0
226 531 -542 227 -234 0
226 531 542 227 234 0
226 -531 -542 -227 -234 0
-226 -531 227 0
-226 531 -227 0
-226 542 -234 0
-226 -542 234 0
227 -427 -228 0
227 427 -231 0
-227 427 231 0
-227 -427 228 0
228 -426 -229 0
228 426 -230 0
-228 426 230 0
-228 -426 229 0
229 -425 -180 0
229 425 -183 0
-229 425 183 0
-229 -425 180 0
230 425 -145 0
230 -425 -184 0
-230 -425 184 0
-230 425 145 0
231 -426 -232 0
231 426 -233 0
-231 426 233 0
-231 -426 232 0
232 -425 -146 0
232 425 -148 0
-232 425 148 0
-232 -425 146 0
233 -425 -149 0
233 425 -152 0
-233 425 152 0
-233 -425 149 0
234 -427 -235 0
234 427 -237 0
-234 427 237 0
-234 -427 235 0
235 426 -159 0
235 -426 -236 0
-235 -426 236 0
-235 426 159 0
236 -425 -192 0
236 425 -195 0
-236 425 195 0
-236 -425 192 0
237 -426 -162 0
237 426 -166 0
-237 426 166 0
-237 -426 162 0
238 579 -239 0
238 -579 239 0
-238 -579 -239 0
-238 579 239 0
239 427 -228 0
239 -427 -240 0
-239 -427 240 0
-239 427 228 0
240 -426 -241 0
240 426 -242 0
-240 426 242 0
-240 -426 241 0
241 425 -176 0
241 -425 -217 0
-241 -425 217 0
-241 425 176 0
242 -425 -177 0
242 425 -179 0
-242 425 179 0
-242 -425 177 0
243 427 -143 0
243 -427 -244 0
-243 -427 244 0
-243 427 143 0
244 -426 -178 0
244 426 -182 0
-244 426 182 0
-244 -426 178 0
245 -246 -257 -266 -273 0
-245 273 0
-245 246 0
-245 266 0
-245 257 0
246 569 247 253 255 0
246 -569 247 -253 255 0
-246 -247 0
-246 -569 253 0
-246 -255 0
-246 569 -253 0
247 487 -248 0
-247 -487 0
-247 248 0
248 -427 -249 0
248 427 -251 0
-248 427 251 0
-248 -427 249 0
249 -426 -233 0
249 426 -250 0
-249 426 250 0
-249 -426 233 0
250 -425 -153 0
250 425 -155 0
-250 425 155 0
-250 -425 153 0
251 426 -241 0
251 -426 -252 0
-251 -426 252 0
-251 426 241 0
252 -425 -156 0
252 425 -216 0
-252 425 216 0
-252 -425 156 0
253 -427 -231 0
253 427 -254 0
-253 427 254 0
-253 -427 231 0
254 -426 -250 0
254 426 -252 0
-254 426 252 0
-254 -426 250 0
255 -586 256 0
-255 586 0
-255 -256 0
256 427 -199 0
256 -427 -221 0
-256 -427 221 0
-256 427 199 0
257 476 258 262 265 0
257 -476 258 -262 265 0
-257 -258 0
-257 -476 262 0
-257 -265 0
-257 476 -262 0
258 500 -259 0
-258 -500 0
-258 259 0
259 427 -158 0
259 -427 -260 0
-259 -427 260 0
-259 427 158 0
260 426 -236 0
260 -426 -261 0
-260 -426 261 0
-260 426 236 0
261 -425 -189 0
261 425 -191 0
-261 425 191 0
-261 -425 189 0
262 -427 -263 0
262 427 -264 0
-262 427 264 0
-262 -427 263 0
263 426 -229 0
263 -426 -242 0
-263 -426 242 0
-263 426 229 0
264 -426 -230 0
264 426 -232 0
-264 426 232 0
-264 -426 230 0
265 -487 248 0
-265 487 0
-265 -248 0
266 493 267 270 271 0
266 -493 267 -270 271 0
-266 -267 0
-266 -493 270 0
-266 -271 0
-266 493 -270 0
267 524 -268 0
-267 -524 0
-267 268 0
268 -427 -181 0
268 427 -269 0
-268 427 269 0
-268 -427 181 0
269 -426 -147 0
269 426 -151 0
-269 426 151 0
-269 -426 147 0
270 -427 -251 0
270 427 -263 0
-270 427 263 0
-270 -427 251 0
271 -512 272 0
-271 512 0
-271 -272 0
272 427 -240 0
272 -427 -254 0
-272 -427 254 0
-272 427 240 0
273 538 274 275 279 0
273 -538 274 -275 279 0
-273 -274 0
-273 -538 275 0
-273 -279 0
-273 538 -275 0
274 586 -256 0
-274 -586 0
-274 256 0
275 -427 -165 0
275 427 -276 0
-275 427 276 0
-275 -427 165 0
276 -426 -277 0
276 426 -278 0
-276 426 278 0
-276 -426 277 0
277 -425 -202 0
277 425 -205 0
-277 425 205 0
-277 -425 202 0
278 425 -188 0
278 -425 -206 0
-278 -425 206 0
-278 425 188 0
279 -524 268 0
-279 524 0
-279 -268 0
280 -281 -285 -289 -295 0
-280 295 0
-280 281 0
-280 289 0
-280 285 0
281 -480 578 282 -284 0
281 -480 -578 -282 -284 0
281 480 578 282 284 0
281 480 -578 -282 284 0
-281 480 -284 0
-281 -480 284 0
-281 -578 282 0
-281 578 -282 0
282 -427 -269 0
282 427 -283 0
-282 427 283 0
-282 -427 269 0
283 -426 -154 0
283 426 -215 0
-283 426 215 0
-283 -426 154 0
284 -427 -214 0
284 427 -244 0
-284 427 244 0
-284 -427 214 0
285 -474 580 -286 287 0
285 474 -580 286 -287 0
285 474 580 286 287 0
285 -474 -580 -286 -287 0
-285 -474 286 0
-285 474 -286 0
-285 580 -287 0
-285 -580 287 0
286 427 -260 0
286 -427 -276 0
-286 -427 276 0
-286 427 260 0
287 427 -235 0
287 -427 -288 0
-287 -427 288 0
-287 427 235 0
288 426 -261 0
288 -426 -278 0
-288 -426 278 0
-288 426 261 0
289 510 290 293 294 0
289 -510 290 -293 294 0
-289 -290 0
-289 -510 293 0
-289 -294 0
-289 510 -293 0
290 566 -291 0
-290 -566 0
-290 291 0
291 -427 -237 0
291 427 -292 0
-291 427 292 0
-291 -427 237 0
292 -426 -169 0
292 426 -277 0
-292 426 277 0
-292 -426 169 0
293 427 -174 0
293 -427 -283 0
-293 -427 283 0
-293 427 174 0
294 -500 259 0
-294 500 0
-294 -259 0
295 507 296 -297 365 0
295 -507 -296 -297 365 0
-295 -365 0
-295 -507 296 0
-295 297 0
-295 507 -296 0
296 427 -249 0
296 -427 -264 0
-296 -427 264 0
-296 427 249 0
297 -298 -316 -324 -342 0
-297 342 0
-297 298 0
-297 324 0
-297 316 0
298 -299 -305 -310 -313 0
-298 313 0
-298 299 0
-298 310 0
-298 305 0
299 -300 -301 -302 -304 0
-299 304 0
-299 300 0
-299 302 0
-299 301 0
300 -432 454 0
300 -552 564 0
300 454 564 0
300 -432 -552 0
-300 -454 552 0
-300 432 -564 0
301 429 440 0
301 -479 -484 0
301 429 -484 0
301 440 -479 0
-301 -429 479 0
-301 -440 484 0
302 -436 -559 -303 0
302 436 559 -303 0
-302 303 0
-302 -436 559 0
-302 436 -559 0
303 432 552 0
303 -454 -564 0
303 432 -454 0
303 552 -564 0
-303 -432 564 0
-303 454 -552 0
304 -439 459 -517 523 0
304 439 -459 517 -523 0
304 439 459 517 523 0
304 -439 -459 -517 -523 0
-304 -439 517 0
-304 439 -517 0
-304 459 -523 0
-304 -459 523 0
305 -306 -307 -308 -309 0
-305 309 0
-305 306 0
-305 308 0
-305 307 0
306 -429 430 526 -556 0
306 -429 -430 -526 -556 0
306 429 430 526 556 0
306 429 -430 -526 556 0
-306 429 -556 0
-306 -429 556 0
-306 -430 526 0
-306 430 -526 0
307 -437 452 485 -541 0
307 -437 -452 -485 -541 0
307 437 452 485 541 0
307 437 -452 -485 541 0
-307 437 -541 0
-307 -437 541 0
-307 -452 485 0
-307 452 -485 0
308 -433 434 -536 540 0
308 433 -434 536 -540 0
308 433 434 536 540 0
308 -433 -434 -536 -540 0
-308 -433 536 0
-308 433 -536 0
-308 434 -540 0
-308 -434 540 0
309 -437 450 -550 565 0
309 437 -450 550 -565 0
309 437 450 550 565 0
309 -437 -450 -550 -565 0
-309 -437 550 0
-309 437 -550 0
-309 450 -565 0
-309 -450 565 0
310 450 585 -311 -312 0
310 -450 -585 -311 -312 0
-310 312 0
-310 -450 585 0
-310 311 0
-310 450 -585 0
311 -443 -535 0
311 447 463 0
311 463 -535 0
311 -443 447 0
-311 -447 535 0
-311 443 -463 0
312 -433 442 481 -518 0
312 -433 -442 -481 -518 0
312 433 442 481 518 0
312 433 -442 -481 518 0
-312 433 -518 0
-312 -433 518 0
-312 -442 481 0
-312 442 -481 0
313 438 495 -314 -315 0
313 -438 -495 -314 -315 0
-313 315 0
-313 -438 495 0
-313 314 0
-313 438 -495 0
314 -439 442 472 -511 0
314 -439 -442 -472 -511 0
314 439 442 472 511 0
314 439 -442 -472 511 0
-314 439 -511 0
-314 -439 511 0
-314 -442 472 0
-314 442 -472 0
315 -440 443 0
315 -463 484 0
315 443 484 0
315 -440 -463 0
-315 -443 463 0
-315 440 -484 0
316 441 522 -317 -318 0
316 -441 -522 -317 -318 0
-316 318 0
-316 -441 522 0
-316 317 0
-316 441 -522 0
317 -434 454 497 -562 0
317 -434 -454 -497 -562 0
317 434 454 497 562 0
317 434 -454 -497 562 0
-317 434 -562 0
-317 -434 562 0
-317 -454 497 0
-317 454 -497 0
318 -319 -320 -321 -323 0
-318 323 0
-318 319 0
-318 321 0
-318 320 0
319 -435 449 486 -553 0
319 -435 -449 -486 -553 0
319 435 449 486 553 0
319 435 -449 -486 553 0
-319 435 -553 0
-319 -435 553 0
-319 -449 486 0
-319 449 -486 0
320 -451 455 488 -548 0
320 -451 -455 -488 -548 0
320 451 455 488 548 0
320 451 -455 -488 548 0
-320 451 -548 0
-320 -451 548 0
-320 -455 488 0
-320 455 -488 0
321 -453 -514 322 0
321 453 530 322 0
-321 -322 0
-321 -453 514 0
-321 453 -530 0
322 455 -504 0
322 -455 504 0
-322 -455 -504 0
-322 455 504 0
323 -452 456 -473 545 0
323 452 -456 473 -545 0
323 452 456 473 545 0
323 -452 -456 -473 -545 0
-323 -452 473 0
-323 452 -473 0
-323 456 -545 0
-323 -456 545 0
324 -325 -335 -336 -337 0
-324 337 0
-324 325 0
-324 336 0
-324 335 0
325 -326 -329 -332 -333 0
-325 333 0
-325 326 0
-325 332 0
-325 329 0
326 448 570 327 328 0
326 -448 -570 327 328 0
-326 -327 0
-326 -448 570 0
-326 -328 0
-326 448 -570 0
327 430 -499 0
-327 -430 0
-327 499 0
328 438 -584 0
-328 -438 0
-328 584 0
329 444 573 330 331 0
329 -444 -573 330 331 0
-329 -330 0
-329 -444 573 0
-329 -331 0
-329 444 -573 0
330 435 -503 0
-330 -435 0
-330 503 0
331 -430 499 0
-331 430 0
-331 -499 0
332 -446 449 544 -546 0
332 -446 -449 -544 -546 0
332 446 449 544 546 0
332 446 -449 -544 546 0
-332 446 -546 0
-332 -446 546 0
-332 -449 544 0
-332 449 -544 0
333 -445 -537 -334 0
333 445 537 -334 0
-333 334 0
-333 -445 537 0
-333 445 -537 0
334 -431 -587 0
334 460 477 0
334 477 -587 0
334 -431 460 0
-334 -460 587 0
-334 431 -477 0
335 -428 443 -502 506 0
335 428 -443 502 -506 0
335 428 443 502 506 0
335 -428 -443 -502 -506 0
-335 -428 502 0
-335 428 -502 0
-335 443 -506 0
-335 -443 506 0
336 -436 444 581 -582 0
336 -436 -444 -581 -582 0
336 436 444 581 582 0
336 436 -444 -581 582 0
-336 436 -582 0
-336 -436 582 0
-336 -444 581 0
-336 444 -581 0
337 459 590 -338 -341 0
337 -459 -590 -338 -341 0
-337 341 0
-337 -459 590 0
-337 338 0
-337 459 -590 0
338 446 575 339 340 0
338 -446 -575 339 340 0
-338 -339 0
-338 -446 575 0
-338 -340 0
-338 446 -575 0
339 460 -587 0
-339 -460 0
-339 587 0
340 -435 503 0
-340 435 0
-340 -503 0
341 -448 -466 0
341 -466 533 0
-341 466 0
-341 448 -533 0
342 -343 -354 -359 -362 0
-342 362 0
-342 343 0
-342 359 0
-342 354 0
343 -344 -349 -350 -351 0
-343 351 0
-343 344 0
-343 350 0
-343 349 0
344 440 588 -345 -346 0
344 -440 -588 -345 -346 0
-344 346 0
-344 -440 588 0
-344 345 0
-344 440 -588 0
345 441 445 0
345 -505 -583 0
345 441 -583 0
345 445 -505 0
-345 -441 505 0
-345 -445 583 0
346 457 478 347 348 0
346 -457 -478 347 348 0
-346 -347 0
-346 -457 478 0
-346 -348 0
-346 457 -478 0
347 451 -468 0
-347 -451 0
-347 468 0
348 -432 462 0
-348 432 0
-348 -462 0
349 438 447 0
349 -568 -584 0
349 447 -584 0
349 438 -568 0
-349 -447 568 0
-349 -438 584 0
350 -447 479 0
350 -429 535 0
350 -429 -447 0
350 479 535 0
-350 447 -535 0
-350 429 -479 0
351 456 508 352 353 0
351 -456 -508 352 353 0
-351 -352 0
-351 -456 508 0
-351 -353 0
-351 456 -508 0
352 445 -583 0
-352 -445 0
-352 583 0
353 441 -505 0
-353 -441 0
-353 505 0
354 -355 -356 -357 0
-354 355 0
-354 356 0
-354 357 0
355 448 516 0
355 -457 -533 0
355 448 -457 0
355 516 -533 0
-355 -448 533 0
-355 457 -516 0
356 -447 -576 0
356 458 568 0
356 568 -576 0
356 -447 458 0
-356 -458 576 0
-356 447 -568 0
357 431 557 358 0
357 -431 -477 -557 358 0
-357 -431 477 0
-357 431 -557 0
-357 -358 0
-357 -431 557 0
358 -457 516 0
-358 457 0
-358 -516 0
359 458 515 360 361 0
359 -458 -515 360 361 0
-359 -360 0
-359 -458 515 0
-359 -361 0
-359 458 -515 0
360 432 -462 0
-360 -432 0
-360 462 0
361 -451 468 0
-361 451 0
-361 -468 0
362 460 572 363 364 0
362 -460 -572 363 364 0
-362 -363 0
-362 -460 572 0
-362 -364 0
-362 460 -572 0
363 458 -576 0
-363 -458 0
-363 576 0
364 -514 530 0
-364 514 0
-364 -530 0
365 -566 291 0
-365 566 0
-365 -291 0
366 560 -367 374 -376 0
366 -560 -367 374 376 0
-366 -374 0
-366 -560 -376 0
-366 367 0
-366 560 376 0
367 501 -577 368 -371 0
367 501 577 -368 -371 0
367 -501 577 -368 371 0
367 -501 -577 368 371 0
-367 -501 -371 0
-367 501 371 0
-367 -577 -368 0
-367 577 368 0
368 428 -369 0
368 -428 -370 0
-368 -428 370 0
-368 428 369 0
369 -427 -40 0
369 427 -62 0
-369 427 62 0
-369 -427 40 0
370 427 -47 0
370 -427 -55 0
-370 -427 55 0
-370 427 47 0
371 428 -372 0
371 -428 -373 0
-371 -428 373 0
-371 428 372 0
372 -427 -118 0
372 427 -122 0
-372 427 122 0
-372 -427 118 0
373 427 -119 0
373 -427 -121 0
-373 -427 121 0
-373 427 119 0
374 -527 -375 0
374 527 375 0
-374 527 -375 0
-374 -527 375 0
375 -428 -106 0
375 428 -107 0
-375 428 107 0
-375 -428 106 0
376 428 -377 0
376 -428 -378 0
-376 -428 378 0
-376 428 377 0
377 -427 -126 0
377 427 -130 0
-377 427 130 0
-377 -427 126 0
378 427 -127 0
378 -427 -129 0
-378 -427 129 0
-378 427 127 0
379 -464 520 380 -381 0
379 464 520 -380 -381 0
379 464 -520 -380 381 0
379 -464 -520 380 381 0
-379 -464 -380 0
-379 464 380 0
-379 520 381 0
-379 -520 -381 0
380 -428 -110 0
380 428 -113 0
-380 428 113 0
-380 -428 110 0
381 -428 -369 0
381 428 -370 0
-381 428 370 0
-381 -428 369 0
382 469 -475 383 -384 0
382 469 475 -383 -384 0
382 -469 475 -383 384 0
382 -469 -475 383 384 0
-382 -469 -384 0
-382 469 384 0
-382 -475 -383 0
-382 475 383 0
383 -428 -372 0
383 428 -373 0
-383 428 373 0
-383 -428 372 0
384 428 -385 0
384 -428 -386 0
-384 -428 386 0
-384 428 385 0
385 -427 -111 0
385 427 -115 0
-385 427 115 0
-385 -427 111 0
386 427 -112 0
386 -427 -114 0
-386 -427 114 0
-386 427 112 0
387 -471 388 391 -393 0
387 471 -388 391 -393 0
-387 393 0
-387 471 388 0
-387 -391 0
-387 -471 -388 0
388 428 -389 0
388 -428 -390 0
-388 -428 390 0
-388 428 389 0
389 427 -134 0
389 -427 -136 0
-389 -427 136 0
-389 427 134 0
390 -427 -133 0
390 427 -137 0
-390 427 137 0
-390 -427 133 0
391 -551 -392 0
-391 551 0
-391 392 0
392 -428 -385 0
392 428 -386 0
-392 428 386 0
-392 -428 385 0
393 492 -394 -396 -397 0
393 -492 -394 396 -397 0
-393 397 0
-393 -492 -396 0
-393 394 0
-393 492 396 0
394 -551 571 0
394 -392 395 0
394 -551 395 0
394 571 -392 0
-394 551 392 0
-394 -571 -395 0
395 -428 -377 0
395 428 -378 0
-395 428 378 0
-395 -428 377 0
396 -428 -39 0
396 428 -54 0
-396 428 54 0
-396 -428 39 0
397 489 -398 401 0
397 -398 401 403 0
-397 398 0
-397 -401 0
-397 -489 -403 0
398 -555 399 0
398 574 -400 0
398 399 -400 0
398 -555 574 0
-398 -574 -399 0
-398 555 400 0
399 -428 -389 0
399 428 -390 0
-399 428 390 0
-399 -428 389 0
400 -428 -125 0
400 428 -128 0
-400 428 128 0
-400 -428 125 0
401 -491 -402 0
-401 491 0
-401 402 0
402 -428 -132 0
402 428 -135 0
-402 428 135 0
-402 -428 132 0
403 -428 -103 0
403 428 -104 0
-403 428 104 0
-403 -428 103 0
404 -405 -418 -419 -420 0
-404 420 0
-404 405 0
-404 419 0
-404 418 0
405 -406 -408 -413 -417 0
-405 417 0
-405 406 0
-405 413 0
-405 408 0
406 -513 -402 0
406 -491 -407 0
406 -491 -513 0
406 -402 -407 0
-406 513 407 0
-406 491 402 0
407 -428 -72 0
407 428 -79 0
-407 428 79 0
-407 -428 72 0
408 -461 -409 0
408 -529 -410 0
408 -461 -529 0
408 -409 -410 0
-408 529 409 0
-408 461 410 0
409 -428 -87 0
409 428 -94 0
-409 428 94 0
-409 -428 87 0
410 428 -411 0
410 -428 -412 0
-410 -428 412 0
-410 428 411 0
411 427 -14 0
411 -427 -22 0
-411 -427 22 0
-411 427 14 0
412 -427 -7 0
412 427 -29 0
-412 427 29 0
-412 -427 7 0
413 -414 -415 0
413 -528 -415 0
-413 415 0
-413 528 414 0
414 -428 -117 0
414 428 -120 0
-414 428 120 0
-414 -428 117 0
415 -512 532 416 0
415 -532 272 -416 0
415 -512 -532 -416 0
415 532 272 416 0
-415 532 -416 0
-415 -532 416 0
-415 512 -272 0
416 427 -288 0
416 -427 -292 0
-416 -427 292 0
-416 427 288 0
417 -489 400 0
417 555 -403 0
417 400 -403 0
417 -489 555 0
-417 -555 -400 0
-417 489 403 0
418 -574 410 0
418 461 -399 0
418 461 -574 0
418 -399 410 0
-418 -461 -410 0
-418 574 399 0
419 409 414 0
419 528 529 0
419 529 414 0
419 528 409 0
-419 -529 -409 0
-419 -528 -414 0
420 563 -421 422 423 0
420 -563 421 422 423 0
-420 -422 0
-420 563 421 0
-420 -423 0
-420 -563 -421 0
421 -428 -411 0
421 428 -412 0
-421 428 412 0
-421 -428 411 0
422 571 395 0
-422 -571 0
-422 -395 0
423 -513 -407 0
-423 513 0
-423 407 0
721 0
2 3 0
-2 -3 0
2 0

